p cnf 54 58
2 3 4 0
1 3 5 0
1 2 6 0
5 6 7 0
4 6 8 0
4 5 9 0
1 8 9 0
2 7 9 0
3 7 8 0
1 4 7 0
2 5 8 0
3 6 9 0
-10 -1 0
-15 -2 0
-15 10 0
-16 -2 10 0
-20 -3 0
-20 15 0
-21 -3 15 0
-21 16 0
-22 -3 16 0
-25 -4 0
-25 20 0
-26 -4 20 0
-26 21 0
-27 -4 21 0
-27 22 0
-28 -4 22 0
-30 -5 0
-30 25 0
-31 -5 25 0
-31 26 0
-32 -5 26 0
-32 27 0
-33 -5 27 0
-33 28 0
-34 -5 28 0
-36 -6 30 0
-36 31 0
-37 -6 31 0
-37 32 0
-38 -6 32 0
-38 33 0
-39 -6 33 0
-39 34 0
-42 -7 36 0
-42 37 0
-43 -7 37 0
-43 38 0
-44 -7 38 0
-44 39 0
-48 -8 42 0
-48 43 0
-49 -8 43 0
-49 44 0
-54 -9 48 0
-54 49 0
54 0
